(set-option :produce-proofs true)
(declare-const x000 Int)
(declare-const x001 Int)
(declare-const x002 Int)
(declare-const x003 Int)
(declare-const x004 Int)
(declare-const x005 Int)
(declare-const x006 Int)
(declare-const x007 Int)
(declare-const x008 Int)
(declare-const x009 Int)
(declare-const x010 Int)
(declare-const x011 Int)
(declare-const x012 Int)
(declare-const x013 Int)
(declare-const x014 Int)
(declare-const x015 Int)
(declare-const x016 Int)
(declare-const x017 Int)
(declare-const x018 Int)
(declare-const x019 Int)
(declare-const x020 Int)
(declare-const x021 Int)
(declare-const x022 Int)
(declare-const x023 Int)
(declare-const x024 Int)
(declare-const x025 Int)
(declare-const x026 Int)
(declare-const x027 Int)
(declare-const x028 Int)
(declare-const x029 Int)
(declare-const x030 Int)
(declare-const x031 Int)
(declare-const x032 Int)
(declare-const x033 Int)
(declare-const x034 Int)
(declare-const x035 Int)
(declare-const x036 Int)
(declare-const x037 Int)
(declare-const x038 Int)
(declare-const x039 Int)
(declare-const x040 Int)
(declare-const x041 Int)
(declare-const x042 Int)
(declare-const x043 Int)
(declare-const x044 Int)
(declare-const x045 Int)
(assert (>= 1 x000))
(assert (<= 0 x000))
(assert (>= 1 x001))
(assert (<= 0 x001))
(assert (>= 1 x002))
(assert (<= 0 x002))
(assert (>= 2 (+ x002 x001 x000)))
(assert (>= 1 x003))
(assert (<= 0 x003))
(assert (>= 2 (+ x003 x002 x001)))
(assert (>= 1 x004))
(assert (<= 0 x004))
(assert (>= 2 (+ x004 x003 x002)))
(assert (>= 2 (+ x004 x002 x000)))
(assert (>= 1 x005))
(assert (<= 0 x005))
(assert (>= 2 (+ x005 x004 x003)))
(assert (>= 2 (+ x005 x003 x001)))
(assert (>= 1 x006))
(assert (<= 0 x006))
(assert (>= 2 (+ x006 x005 x004)))
(assert (>= 2 (+ x006 x004 x002)))
(assert (>= 2 (+ x006 x003 x000)))
(assert (<= 1 (+ x006 x005 x004 x003 x002 x001 x000)))
(assert (>= 1 x007))
(assert (<= 0 x007))
(assert (>= 2 (+ x007 x006 x005)))
(assert (>= 2 (+ x007 x005 x003)))
(assert (>= 2 (+ x007 x004 x001)))
(assert (<= 1 (+ x007 x006 x005 x004 x003 x002 x001)))
(assert (>= 1 x008))
(assert (<= 0 x008))
(assert (>= 2 (+ x008 x007 x006)))
(assert (>= 2 (+ x008 x006 x004)))
(assert (>= 2 (+ x008 x005 x002)))
(assert (>= 2 (+ x008 x004 x000)))
(assert (<= 1 (+ x008 x007 x006 x005 x004 x003 x002)))
(assert (>= 1 x009))
(assert (<= 0 x009))
(assert (>= 2 (+ x009 x008 x007)))
(assert (>= 2 (+ x009 x007 x005)))
(assert (>= 2 (+ x009 x006 x003)))
(assert (>= 2 (+ x009 x005 x001)))
(assert (<= 1 (+ x009 x008 x007 x006 x005 x004 x003)))
(assert (>= 1 x010))
(assert (<= 0 x010))
(assert (>= 2 (+ x010 x009 x008)))
(assert (>= 2 (+ x010 x008 x006)))
(assert (>= 2 (+ x010 x007 x004)))
(assert (>= 2 (+ x010 x006 x002)))
(assert (>= 2 (+ x010 x005 x000)))
(assert (<= 1 (+ x010 x009 x008 x007 x006 x005 x004)))
(assert (>= 1 x011))
(assert (<= 0 x011))
(assert (>= 2 (+ x011 x010 x009)))
(assert (>= 2 (+ x011 x009 x007)))
(assert (>= 2 (+ x011 x008 x005)))
(assert (>= 2 (+ x011 x007 x003)))
(assert (>= 2 (+ x011 x006 x001)))
(assert (<= 1 (+ x011 x010 x009 x008 x007 x006 x005)))
(assert (>= 1 x012))
(assert (<= 0 x012))
(assert (>= 2 (+ x012 x011 x010)))
(assert (>= 2 (+ x012 x010 x008)))
(assert (>= 2 (+ x012 x009 x006)))
(assert (>= 2 (+ x012 x008 x004)))
(assert (>= 2 (+ x012 x007 x002)))
(assert (>= 2 (+ x012 x006 x000)))
(assert (<= 1 (+ x012 x011 x010 x009 x008 x007 x006)))
(assert (<= 1 (+ x012 x010 x008 x006 x004 x002 x000)))
(assert (>= 1 x013))
(assert (<= 0 x013))
(assert (>= 2 (+ x013 x012 x011)))
(assert (>= 2 (+ x013 x011 x009)))
(assert (>= 2 (+ x013 x010 x007)))
(assert (>= 2 (+ x013 x009 x005)))
(assert (>= 2 (+ x013 x008 x003)))
(assert (>= 2 (+ x013 x007 x001)))
(assert (<= 1 (+ x013 x012 x011 x010 x009 x008 x007)))
(assert (<= 1 (+ x013 x011 x009 x007 x005 x003 x001)))
(assert (>= 1 x014))
(assert (<= 0 x014))
(assert (>= 2 (+ x014 x013 x012)))
(assert (>= 2 (+ x014 x012 x010)))
(assert (>= 2 (+ x014 x011 x008)))
(assert (>= 2 (+ x014 x010 x006)))
(assert (>= 2 (+ x014 x009 x004)))
(assert (>= 2 (+ x014 x008 x002)))
(assert (>= 2 (+ x014 x007 x000)))
(assert (<= 1 (+ x014 x013 x012 x011 x010 x009 x008)))
(assert (<= 1 (+ x014 x012 x010 x008 x006 x004 x002)))
(assert (>= 1 x015))
(assert (<= 0 x015))
(assert (>= 2 (+ x015 x014 x013)))
(assert (>= 2 (+ x015 x013 x011)))
(assert (>= 2 (+ x015 x012 x009)))
(assert (>= 2 (+ x015 x011 x007)))
(assert (>= 2 (+ x015 x010 x005)))
(assert (>= 2 (+ x015 x009 x003)))
(assert (>= 2 (+ x015 x008 x001)))
(assert (<= 1 (+ x015 x014 x013 x012 x011 x010 x009)))
(assert (<= 1 (+ x015 x013 x011 x009 x007 x005 x003)))
(assert (>= 1 x016))
(assert (<= 0 x016))
(assert (>= 2 (+ x016 x015 x014)))
(assert (>= 2 (+ x016 x014 x012)))
(assert (>= 2 (+ x016 x013 x010)))
(assert (>= 2 (+ x016 x012 x008)))
(assert (>= 2 (+ x016 x011 x006)))
(assert (>= 2 (+ x016 x010 x004)))
(assert (>= 2 (+ x016 x009 x002)))
(assert (>= 2 (+ x016 x008 x000)))
(assert (<= 1 (+ x016 x015 x014 x013 x012 x011 x010)))
(assert (<= 1 (+ x016 x014 x012 x010 x008 x006 x004)))
(assert (>= 1 x017))
(assert (<= 0 x017))
(assert (>= 2 (+ x017 x016 x015)))
(assert (>= 2 (+ x017 x015 x013)))
(assert (>= 2 (+ x017 x014 x011)))
(assert (>= 2 (+ x017 x013 x009)))
(assert (>= 2 (+ x017 x012 x007)))
(assert (>= 2 (+ x017 x011 x005)))
(assert (>= 2 (+ x017 x010 x003)))
(assert (>= 2 (+ x017 x009 x001)))
(assert (<= 1 (+ x017 x016 x015 x014 x013 x012 x011)))
(assert (<= 1 (+ x017 x015 x013 x011 x009 x007 x005)))
(assert (>= 1 x018))
(assert (<= 0 x018))
(assert (>= 2 (+ x018 x017 x016)))
(assert (>= 2 (+ x018 x016 x014)))
(assert (>= 2 (+ x018 x015 x012)))
(assert (>= 2 (+ x018 x014 x010)))
(assert (>= 2 (+ x018 x013 x008)))
(assert (>= 2 (+ x018 x012 x006)))
(assert (>= 2 (+ x018 x011 x004)))
(assert (>= 2 (+ x018 x010 x002)))
(assert (>= 2 (+ x018 x009 x000)))
(assert (<= 1 (+ x018 x017 x016 x015 x014 x013 x012)))
(assert (<= 1 (+ x018 x016 x014 x012 x010 x008 x006)))
(assert (<= 1 (+ x018 x015 x012 x009 x006 x003 x000)))
(assert (>= 1 x019))
(assert (<= 0 x019))
(assert (>= 2 (+ x019 x018 x017)))
(assert (>= 2 (+ x019 x017 x015)))
(assert (>= 2 (+ x019 x016 x013)))
(assert (>= 2 (+ x019 x015 x011)))
(assert (>= 2 (+ x019 x014 x009)))
(assert (>= 2 (+ x019 x013 x007)))
(assert (>= 2 (+ x019 x012 x005)))
(assert (>= 2 (+ x019 x011 x003)))
(assert (>= 2 (+ x019 x010 x001)))
(assert (<= 1 (+ x019 x018 x017 x016 x015 x014 x013)))
(assert (<= 1 (+ x019 x017 x015 x013 x011 x009 x007)))
(assert (<= 1 (+ x019 x016 x013 x010 x007 x004 x001)))
(assert (>= 1 x020))
(assert (<= 0 x020))
(assert (>= 2 (+ x020 x019 x018)))
(assert (>= 2 (+ x020 x018 x016)))
(assert (>= 2 (+ x020 x017 x014)))
(assert (>= 2 (+ x020 x016 x012)))
(assert (>= 2 (+ x020 x015 x010)))
(assert (>= 2 (+ x020 x014 x008)))
(assert (>= 2 (+ x020 x013 x006)))
(assert (>= 2 (+ x020 x012 x004)))
(assert (>= 2 (+ x020 x011 x002)))
(assert (>= 2 (+ x020 x010 x000)))
(assert (<= 1 (+ x020 x019 x018 x017 x016 x015 x014)))
(assert (<= 1 (+ x020 x018 x016 x014 x012 x010 x008)))
(assert (<= 1 (+ x020 x017 x014 x011 x008 x005 x002)))
(assert (>= 1 x021))
(assert (<= 0 x021))
(assert (>= 2 (+ x021 x020 x019)))
(assert (>= 2 (+ x021 x019 x017)))
(assert (>= 2 (+ x021 x018 x015)))
(assert (>= 2 (+ x021 x017 x013)))
(assert (>= 2 (+ x021 x016 x011)))
(assert (>= 2 (+ x021 x015 x009)))
(assert (>= 2 (+ x021 x014 x007)))
(assert (>= 2 (+ x021 x013 x005)))
(assert (>= 2 (+ x021 x012 x003)))
(assert (>= 2 (+ x021 x011 x001)))
(assert (<= 1 (+ x021 x020 x019 x018 x017 x016 x015)))
(assert (<= 1 (+ x021 x019 x017 x015 x013 x011 x009)))
(assert (<= 1 (+ x021 x018 x015 x012 x009 x006 x003)))
(assert (>= 1 x022))
(assert (<= 0 x022))
(assert (>= 2 (+ x022 x021 x020)))
(assert (>= 2 (+ x022 x020 x018)))
(assert (>= 2 (+ x022 x019 x016)))
(assert (>= 2 (+ x022 x018 x014)))
(assert (>= 2 (+ x022 x017 x012)))
(assert (>= 2 (+ x022 x016 x010)))
(assert (>= 2 (+ x022 x015 x008)))
(assert (>= 2 (+ x022 x014 x006)))
(assert (>= 2 (+ x022 x013 x004)))
(assert (>= 2 (+ x022 x012 x002)))
(assert (>= 2 (+ x022 x011 x000)))
(assert (<= 1 (+ x022 x021 x020 x019 x018 x017 x016)))
(assert (<= 1 (+ x022 x020 x018 x016 x014 x012 x010)))
(assert (<= 1 (+ x022 x019 x016 x013 x010 x007 x004)))
(assert (>= 1 x023))
(assert (<= 0 x023))
(assert (>= 2 (+ x023 x022 x021)))
(assert (>= 2 (+ x023 x021 x019)))
(assert (>= 2 (+ x023 x020 x017)))
(assert (>= 2 (+ x023 x019 x015)))
(assert (>= 2 (+ x023 x018 x013)))
(assert (>= 2 (+ x023 x017 x011)))
(assert (>= 2 (+ x023 x016 x009)))
(assert (>= 2 (+ x023 x015 x007)))
(assert (>= 2 (+ x023 x014 x005)))
(assert (>= 2 (+ x023 x013 x003)))
(assert (>= 2 (+ x023 x012 x001)))
(assert (<= 1 (+ x023 x022 x021 x020 x019 x018 x017)))
(assert (<= 1 (+ x023 x021 x019 x017 x015 x013 x011)))
(assert (<= 1 (+ x023 x020 x017 x014 x011 x008 x005)))
(assert (>= 1 x024))
(assert (<= 0 x024))
(assert (>= 2 (+ x024 x023 x022)))
(assert (>= 2 (+ x024 x022 x020)))
(assert (>= 2 (+ x024 x021 x018)))
(assert (>= 2 (+ x024 x020 x016)))
(assert (>= 2 (+ x024 x019 x014)))
(assert (>= 2 (+ x024 x018 x012)))
(assert (>= 2 (+ x024 x017 x010)))
(assert (>= 2 (+ x024 x016 x008)))
(assert (>= 2 (+ x024 x015 x006)))
(assert (>= 2 (+ x024 x014 x004)))
(assert (>= 2 (+ x024 x013 x002)))
(assert (>= 2 (+ x024 x012 x000)))
(assert (<= 1 (+ x024 x023 x022 x021 x020 x019 x018)))
(assert (<= 1 (+ x024 x022 x020 x018 x016 x014 x012)))
(assert (<= 1 (+ x024 x021 x018 x015 x012 x009 x006)))
(assert (<= 1 (+ x024 x020 x016 x012 x008 x004 x000)))
(assert (>= 1 x025))
(assert (<= 0 x025))
(assert (>= 2 (+ x025 x024 x023)))
(assert (>= 2 (+ x025 x023 x021)))
(assert (>= 2 (+ x025 x022 x019)))
(assert (>= 2 (+ x025 x021 x017)))
(assert (>= 2 (+ x025 x020 x015)))
(assert (>= 2 (+ x025 x019 x013)))
(assert (>= 2 (+ x025 x018 x011)))
(assert (>= 2 (+ x025 x017 x009)))
(assert (>= 2 (+ x025 x016 x007)))
(assert (>= 2 (+ x025 x015 x005)))
(assert (>= 2 (+ x025 x014 x003)))
(assert (>= 2 (+ x025 x013 x001)))
(assert (<= 1 (+ x025 x024 x023 x022 x021 x020 x019)))
(assert (<= 1 (+ x025 x023 x021 x019 x017 x015 x013)))
(assert (<= 1 (+ x025 x022 x019 x016 x013 x010 x007)))
(assert (<= 1 (+ x025 x021 x017 x013 x009 x005 x001)))
(assert (>= 1 x026))
(assert (<= 0 x026))
(assert (>= 2 (+ x026 x025 x024)))
(assert (>= 2 (+ x026 x024 x022)))
(assert (>= 2 (+ x026 x023 x020)))
(assert (>= 2 (+ x026 x022 x018)))
(assert (>= 2 (+ x026 x021 x016)))
(assert (>= 2 (+ x026 x020 x014)))
(assert (>= 2 (+ x026 x019 x012)))
(assert (>= 2 (+ x026 x018 x010)))
(assert (>= 2 (+ x026 x017 x008)))
(assert (>= 2 (+ x026 x016 x006)))
(assert (>= 2 (+ x026 x015 x004)))
(assert (>= 2 (+ x026 x014 x002)))
(assert (>= 2 (+ x026 x013 x000)))
(assert (<= 1 (+ x026 x025 x024 x023 x022 x021 x020)))
(assert (<= 1 (+ x026 x024 x022 x020 x018 x016 x014)))
(assert (<= 1 (+ x026 x023 x020 x017 x014 x011 x008)))
(assert (<= 1 (+ x026 x022 x018 x014 x010 x006 x002)))
(assert (>= 1 x027))
(assert (<= 0 x027))
(assert (>= 2 (+ x027 x026 x025)))
(assert (>= 2 (+ x027 x025 x023)))
(assert (>= 2 (+ x027 x024 x021)))
(assert (>= 2 (+ x027 x023 x019)))
(assert (>= 2 (+ x027 x022 x017)))
(assert (>= 2 (+ x027 x021 x015)))
(assert (>= 2 (+ x027 x020 x013)))
(assert (>= 2 (+ x027 x019 x011)))
(assert (>= 2 (+ x027 x018 x009)))
(assert (>= 2 (+ x027 x017 x007)))
(assert (>= 2 (+ x027 x016 x005)))
(assert (>= 2 (+ x027 x015 x003)))
(assert (>= 2 (+ x027 x014 x001)))
(assert (<= 1 (+ x027 x026 x025 x024 x023 x022 x021)))
(assert (<= 1 (+ x027 x025 x023 x021 x019 x017 x015)))
(assert (<= 1 (+ x027 x024 x021 x018 x015 x012 x009)))
(assert (<= 1 (+ x027 x023 x019 x015 x011 x007 x003)))
(assert (>= 1 x028))
(assert (<= 0 x028))
(assert (>= 2 (+ x028 x027 x026)))
(assert (>= 2 (+ x028 x026 x024)))
(assert (>= 2 (+ x028 x025 x022)))
(assert (>= 2 (+ x028 x024 x020)))
(assert (>= 2 (+ x028 x023 x018)))
(assert (>= 2 (+ x028 x022 x016)))
(assert (>= 2 (+ x028 x021 x014)))
(assert (>= 2 (+ x028 x020 x012)))
(assert (>= 2 (+ x028 x019 x010)))
(assert (>= 2 (+ x028 x018 x008)))
(assert (>= 2 (+ x028 x017 x006)))
(assert (>= 2 (+ x028 x016 x004)))
(assert (>= 2 (+ x028 x015 x002)))
(assert (>= 2 (+ x028 x014 x000)))
(assert (<= 1 (+ x028 x027 x026 x025 x024 x023 x022)))
(assert (<= 1 (+ x028 x026 x024 x022 x020 x018 x016)))
(assert (<= 1 (+ x028 x025 x022 x019 x016 x013 x010)))
(assert (<= 1 (+ x028 x024 x020 x016 x012 x008 x004)))
(assert (>= 1 x029))
(assert (<= 0 x029))
(assert (>= 2 (+ x029 x028 x027)))
(assert (>= 2 (+ x029 x027 x025)))
(assert (>= 2 (+ x029 x026 x023)))
(assert (>= 2 (+ x029 x025 x021)))
(assert (>= 2 (+ x029 x024 x019)))
(assert (>= 2 (+ x029 x023 x017)))
(assert (>= 2 (+ x029 x022 x015)))
(assert (>= 2 (+ x029 x021 x013)))
(assert (>= 2 (+ x029 x020 x011)))
(assert (>= 2 (+ x029 x019 x009)))
(assert (>= 2 (+ x029 x018 x007)))
(assert (>= 2 (+ x029 x017 x005)))
(assert (>= 2 (+ x029 x016 x003)))
(assert (>= 2 (+ x029 x015 x001)))
(assert (<= 1 (+ x029 x028 x027 x026 x025 x024 x023)))
(assert (<= 1 (+ x029 x027 x025 x023 x021 x019 x017)))
(assert (<= 1 (+ x029 x026 x023 x020 x017 x014 x011)))
(assert (<= 1 (+ x029 x025 x021 x017 x013 x009 x005)))
(assert (>= 1 x030))
(assert (<= 0 x030))
(assert (>= 2 (+ x030 x029 x028)))
(assert (>= 2 (+ x030 x028 x026)))
(assert (>= 2 (+ x030 x027 x024)))
(assert (>= 2 (+ x030 x026 x022)))
(assert (>= 2 (+ x030 x025 x020)))
(assert (>= 2 (+ x030 x024 x018)))
(assert (>= 2 (+ x030 x023 x016)))
(assert (>= 2 (+ x030 x022 x014)))
(assert (>= 2 (+ x030 x021 x012)))
(assert (>= 2 (+ x030 x020 x010)))
(assert (>= 2 (+ x030 x019 x008)))
(assert (>= 2 (+ x030 x018 x006)))
(assert (>= 2 (+ x030 x017 x004)))
(assert (>= 2 (+ x030 x016 x002)))
(assert (>= 2 (+ x030 x015 x000)))
(assert (<= 1 (+ x030 x029 x028 x027 x026 x025 x024)))
(assert (<= 1 (+ x030 x028 x026 x024 x022 x020 x018)))
(assert (<= 1 (+ x030 x027 x024 x021 x018 x015 x012)))
(assert (<= 1 (+ x030 x026 x022 x018 x014 x010 x006)))
(assert (<= 1 (+ x030 x025 x020 x015 x010 x005 x000)))
(assert (>= 1 x031))
(assert (<= 0 x031))
(assert (>= 2 (+ x031 x030 x029)))
(assert (>= 2 (+ x031 x029 x027)))
(assert (>= 2 (+ x031 x028 x025)))
(assert (>= 2 (+ x031 x027 x023)))
(assert (>= 2 (+ x031 x026 x021)))
(assert (>= 2 (+ x031 x025 x019)))
(assert (>= 2 (+ x031 x024 x017)))
(assert (>= 2 (+ x031 x023 x015)))
(assert (>= 2 (+ x031 x022 x013)))
(assert (>= 2 (+ x031 x021 x011)))
(assert (>= 2 (+ x031 x020 x009)))
(assert (>= 2 (+ x031 x019 x007)))
(assert (>= 2 (+ x031 x018 x005)))
(assert (>= 2 (+ x031 x017 x003)))
(assert (>= 2 (+ x031 x016 x001)))
(assert (<= 1 (+ x031 x030 x029 x028 x027 x026 x025)))
(assert (<= 1 (+ x031 x029 x027 x025 x023 x021 x019)))
(assert (<= 1 (+ x031 x028 x025 x022 x019 x016 x013)))
(assert (<= 1 (+ x031 x027 x023 x019 x015 x011 x007)))
(assert (<= 1 (+ x031 x026 x021 x016 x011 x006 x001)))
(assert (>= 1 x032))
(assert (<= 0 x032))
(assert (>= 2 (+ x032 x031 x030)))
(assert (>= 2 (+ x032 x030 x028)))
(assert (>= 2 (+ x032 x029 x026)))
(assert (>= 2 (+ x032 x028 x024)))
(assert (>= 2 (+ x032 x027 x022)))
(assert (>= 2 (+ x032 x026 x020)))
(assert (>= 2 (+ x032 x025 x018)))
(assert (>= 2 (+ x032 x024 x016)))
(assert (>= 2 (+ x032 x023 x014)))
(assert (>= 2 (+ x032 x022 x012)))
(assert (>= 2 (+ x032 x021 x010)))
(assert (>= 2 (+ x032 x020 x008)))
(assert (>= 2 (+ x032 x019 x006)))
(assert (>= 2 (+ x032 x018 x004)))
(assert (>= 2 (+ x032 x017 x002)))
(assert (>= 2 (+ x032 x016 x000)))
(assert (<= 1 (+ x032 x031 x030 x029 x028 x027 x026)))
(assert (<= 1 (+ x032 x030 x028 x026 x024 x022 x020)))
(assert (<= 1 (+ x032 x029 x026 x023 x020 x017 x014)))
(assert (<= 1 (+ x032 x028 x024 x020 x016 x012 x008)))
(assert (<= 1 (+ x032 x027 x022 x017 x012 x007 x002)))
(assert (>= 1 x033))
(assert (<= 0 x033))
(assert (>= 2 (+ x033 x032 x031)))
(assert (>= 2 (+ x033 x031 x029)))
(assert (>= 2 (+ x033 x030 x027)))
(assert (>= 2 (+ x033 x029 x025)))
(assert (>= 2 (+ x033 x028 x023)))
(assert (>= 2 (+ x033 x027 x021)))
(assert (>= 2 (+ x033 x026 x019)))
(assert (>= 2 (+ x033 x025 x017)))
(assert (>= 2 (+ x033 x024 x015)))
(assert (>= 2 (+ x033 x023 x013)))
(assert (>= 2 (+ x033 x022 x011)))
(assert (>= 2 (+ x033 x021 x009)))
(assert (>= 2 (+ x033 x020 x007)))
(assert (>= 2 (+ x033 x019 x005)))
(assert (>= 2 (+ x033 x018 x003)))
(assert (>= 2 (+ x033 x017 x001)))
(assert (<= 1 (+ x033 x032 x031 x030 x029 x028 x027)))
(assert (<= 1 (+ x033 x031 x029 x027 x025 x023 x021)))
(assert (<= 1 (+ x033 x030 x027 x024 x021 x018 x015)))
(assert (<= 1 (+ x033 x029 x025 x021 x017 x013 x009)))
(assert (<= 1 (+ x033 x028 x023 x018 x013 x008 x003)))
(assert (>= 1 x034))
(assert (<= 0 x034))
(assert (>= 2 (+ x034 x033 x032)))
(assert (>= 2 (+ x034 x032 x030)))
(assert (>= 2 (+ x034 x031 x028)))
(assert (>= 2 (+ x034 x030 x026)))
(assert (>= 2 (+ x034 x029 x024)))
(assert (>= 2 (+ x034 x028 x022)))
(assert (>= 2 (+ x034 x027 x020)))
(assert (>= 2 (+ x034 x026 x018)))
(assert (>= 2 (+ x034 x025 x016)))
(assert (>= 2 (+ x034 x024 x014)))
(assert (>= 2 (+ x034 x023 x012)))
(assert (>= 2 (+ x034 x022 x010)))
(assert (>= 2 (+ x034 x021 x008)))
(assert (>= 2 (+ x034 x020 x006)))
(assert (>= 2 (+ x034 x019 x004)))
(assert (>= 2 (+ x034 x018 x002)))
(assert (>= 2 (+ x034 x017 x000)))
(assert (<= 1 (+ x034 x033 x032 x031 x030 x029 x028)))
(assert (<= 1 (+ x034 x032 x030 x028 x026 x024 x022)))
(assert (<= 1 (+ x034 x031 x028 x025 x022 x019 x016)))
(assert (<= 1 (+ x034 x030 x026 x022 x018 x014 x010)))
(assert (<= 1 (+ x034 x029 x024 x019 x014 x009 x004)))
(assert (>= 1 x035))
(assert (<= 0 x035))
(assert (>= 2 (+ x035 x034 x033)))
(assert (>= 2 (+ x035 x033 x031)))
(assert (>= 2 (+ x035 x032 x029)))
(assert (>= 2 (+ x035 x031 x027)))
(assert (>= 2 (+ x035 x030 x025)))
(assert (>= 2 (+ x035 x029 x023)))
(assert (>= 2 (+ x035 x028 x021)))
(assert (>= 2 (+ x035 x027 x019)))
(assert (>= 2 (+ x035 x026 x017)))
(assert (>= 2 (+ x035 x025 x015)))
(assert (>= 2 (+ x035 x024 x013)))
(assert (>= 2 (+ x035 x023 x011)))
(assert (>= 2 (+ x035 x022 x009)))
(assert (>= 2 (+ x035 x021 x007)))
(assert (>= 2 (+ x035 x020 x005)))
(assert (>= 2 (+ x035 x019 x003)))
(assert (>= 2 (+ x035 x018 x001)))
(assert (<= 1 (+ x035 x034 x033 x032 x031 x030 x029)))
(assert (<= 1 (+ x035 x033 x031 x029 x027 x025 x023)))
(assert (<= 1 (+ x035 x032 x029 x026 x023 x020 x017)))
(assert (<= 1 (+ x035 x031 x027 x023 x019 x015 x011)))
(assert (<= 1 (+ x035 x030 x025 x020 x015 x010 x005)))
(assert (>= 1 x036))
(assert (<= 0 x036))
(assert (>= 2 (+ x036 x035 x034)))
(assert (>= 2 (+ x036 x034 x032)))
(assert (>= 2 (+ x036 x033 x030)))
(assert (>= 2 (+ x036 x032 x028)))
(assert (>= 2 (+ x036 x031 x026)))
(assert (>= 2 (+ x036 x030 x024)))
(assert (>= 2 (+ x036 x029 x022)))
(assert (>= 2 (+ x036 x028 x020)))
(assert (>= 2 (+ x036 x027 x018)))
(assert (>= 2 (+ x036 x026 x016)))
(assert (>= 2 (+ x036 x025 x014)))
(assert (>= 2 (+ x036 x024 x012)))
(assert (>= 2 (+ x036 x023 x010)))
(assert (>= 2 (+ x036 x022 x008)))
(assert (>= 2 (+ x036 x021 x006)))
(assert (>= 2 (+ x036 x020 x004)))
(assert (>= 2 (+ x036 x019 x002)))
(assert (>= 2 (+ x036 x018 x000)))
(assert (<= 1 (+ x036 x035 x034 x033 x032 x031 x030)))
(assert (<= 1 (+ x036 x034 x032 x030 x028 x026 x024)))
(assert (<= 1 (+ x036 x033 x030 x027 x024 x021 x018)))
(assert (<= 1 (+ x036 x032 x028 x024 x020 x016 x012)))
(assert (<= 1 (+ x036 x031 x026 x021 x016 x011 x006)))
(assert (<= 1 (+ x036 x030 x024 x018 x012 x006 x000)))
(assert (>= 1 x037))
(assert (<= 0 x037))
(assert (>= 2 (+ x037 x036 x035)))
(assert (>= 2 (+ x037 x035 x033)))
(assert (>= 2 (+ x037 x034 x031)))
(assert (>= 2 (+ x037 x033 x029)))
(assert (>= 2 (+ x037 x032 x027)))
(assert (>= 2 (+ x037 x031 x025)))
(assert (>= 2 (+ x037 x030 x023)))
(assert (>= 2 (+ x037 x029 x021)))
(assert (>= 2 (+ x037 x028 x019)))
(assert (>= 2 (+ x037 x027 x017)))
(assert (>= 2 (+ x037 x026 x015)))
(assert (>= 2 (+ x037 x025 x013)))
(assert (>= 2 (+ x037 x024 x011)))
(assert (>= 2 (+ x037 x023 x009)))
(assert (>= 2 (+ x037 x022 x007)))
(assert (>= 2 (+ x037 x021 x005)))
(assert (>= 2 (+ x037 x020 x003)))
(assert (>= 2 (+ x037 x019 x001)))
(assert (<= 1 (+ x037 x036 x035 x034 x033 x032 x031)))
(assert (<= 1 (+ x037 x035 x033 x031 x029 x027 x025)))
(assert (<= 1 (+ x037 x034 x031 x028 x025 x022 x019)))
(assert (<= 1 (+ x037 x033 x029 x025 x021 x017 x013)))
(assert (<= 1 (+ x037 x032 x027 x022 x017 x012 x007)))
(assert (<= 1 (+ x037 x031 x025 x019 x013 x007 x001)))
(assert (>= 1 x038))
(assert (<= 0 x038))
(assert (>= 2 (+ x038 x037 x036)))
(assert (>= 2 (+ x038 x036 x034)))
(assert (>= 2 (+ x038 x035 x032)))
(assert (>= 2 (+ x038 x034 x030)))
(assert (>= 2 (+ x038 x033 x028)))
(assert (>= 2 (+ x038 x032 x026)))
(assert (>= 2 (+ x038 x031 x024)))
(assert (>= 2 (+ x038 x030 x022)))
(assert (>= 2 (+ x038 x029 x020)))
(assert (>= 2 (+ x038 x028 x018)))
(assert (>= 2 (+ x038 x027 x016)))
(assert (>= 2 (+ x038 x026 x014)))
(assert (>= 2 (+ x038 x025 x012)))
(assert (>= 2 (+ x038 x024 x010)))
(assert (>= 2 (+ x038 x023 x008)))
(assert (>= 2 (+ x038 x022 x006)))
(assert (>= 2 (+ x038 x021 x004)))
(assert (>= 2 (+ x038 x020 x002)))
(assert (>= 2 (+ x038 x019 x000)))
(assert (<= 1 (+ x038 x037 x036 x035 x034 x033 x032)))
(assert (<= 1 (+ x038 x036 x034 x032 x030 x028 x026)))
(assert (<= 1 (+ x038 x035 x032 x029 x026 x023 x020)))
(assert (<= 1 (+ x038 x034 x030 x026 x022 x018 x014)))
(assert (<= 1 (+ x038 x033 x028 x023 x018 x013 x008)))
(assert (<= 1 (+ x038 x032 x026 x020 x014 x008 x002)))
(assert (>= 1 x039))
(assert (<= 0 x039))
(assert (>= 2 (+ x039 x038 x037)))
(assert (>= 2 (+ x039 x037 x035)))
(assert (>= 2 (+ x039 x036 x033)))
(assert (>= 2 (+ x039 x035 x031)))
(assert (>= 2 (+ x039 x034 x029)))
(assert (>= 2 (+ x039 x033 x027)))
(assert (>= 2 (+ x039 x032 x025)))
(assert (>= 2 (+ x039 x031 x023)))
(assert (>= 2 (+ x039 x030 x021)))
(assert (>= 2 (+ x039 x029 x019)))
(assert (>= 2 (+ x039 x028 x017)))
(assert (>= 2 (+ x039 x027 x015)))
(assert (>= 2 (+ x039 x026 x013)))
(assert (>= 2 (+ x039 x025 x011)))
(assert (>= 2 (+ x039 x024 x009)))
(assert (>= 2 (+ x039 x023 x007)))
(assert (>= 2 (+ x039 x022 x005)))
(assert (>= 2 (+ x039 x021 x003)))
(assert (>= 2 (+ x039 x020 x001)))
(assert (<= 1 (+ x039 x038 x037 x036 x035 x034 x033)))
(assert (<= 1 (+ x039 x037 x035 x033 x031 x029 x027)))
(assert (<= 1 (+ x039 x036 x033 x030 x027 x024 x021)))
(assert (<= 1 (+ x039 x035 x031 x027 x023 x019 x015)))
(assert (<= 1 (+ x039 x034 x029 x024 x019 x014 x009)))
(assert (<= 1 (+ x039 x033 x027 x021 x015 x009 x003)))
(assert (>= 1 x040))
(assert (<= 0 x040))
(assert (>= 2 (+ x040 x039 x038)))
(assert (>= 2 (+ x040 x038 x036)))
(assert (>= 2 (+ x040 x037 x034)))
(assert (>= 2 (+ x040 x036 x032)))
(assert (>= 2 (+ x040 x035 x030)))
(assert (>= 2 (+ x040 x034 x028)))
(assert (>= 2 (+ x040 x033 x026)))
(assert (>= 2 (+ x040 x032 x024)))
(assert (>= 2 (+ x040 x031 x022)))
(assert (>= 2 (+ x040 x030 x020)))
(assert (>= 2 (+ x040 x029 x018)))
(assert (>= 2 (+ x040 x028 x016)))
(assert (>= 2 (+ x040 x027 x014)))
(assert (>= 2 (+ x040 x026 x012)))
(assert (>= 2 (+ x040 x025 x010)))
(assert (>= 2 (+ x040 x024 x008)))
(assert (>= 2 (+ x040 x023 x006)))
(assert (>= 2 (+ x040 x022 x004)))
(assert (>= 2 (+ x040 x021 x002)))
(assert (>= 2 (+ x040 x020 x000)))
(assert (<= 1 (+ x040 x039 x038 x037 x036 x035 x034)))
(assert (<= 1 (+ x040 x038 x036 x034 x032 x030 x028)))
(assert (<= 1 (+ x040 x037 x034 x031 x028 x025 x022)))
(assert (<= 1 (+ x040 x036 x032 x028 x024 x020 x016)))
(assert (<= 1 (+ x040 x035 x030 x025 x020 x015 x010)))
(assert (<= 1 (+ x040 x034 x028 x022 x016 x010 x004)))
(assert (>= 1 x041))
(assert (<= 0 x041))
(assert (>= 2 (+ x041 x040 x039)))
(assert (>= 2 (+ x041 x039 x037)))
(assert (>= 2 (+ x041 x038 x035)))
(assert (>= 2 (+ x041 x037 x033)))
(assert (>= 2 (+ x041 x036 x031)))
(assert (>= 2 (+ x041 x035 x029)))
(assert (>= 2 (+ x041 x034 x027)))
(assert (>= 2 (+ x041 x033 x025)))
(assert (>= 2 (+ x041 x032 x023)))
(assert (>= 2 (+ x041 x031 x021)))
(assert (>= 2 (+ x041 x030 x019)))
(assert (>= 2 (+ x041 x029 x017)))
(assert (>= 2 (+ x041 x028 x015)))
(assert (>= 2 (+ x041 x027 x013)))
(assert (>= 2 (+ x041 x026 x011)))
(assert (>= 2 (+ x041 x025 x009)))
(assert (>= 2 (+ x041 x024 x007)))
(assert (>= 2 (+ x041 x023 x005)))
(assert (>= 2 (+ x041 x022 x003)))
(assert (>= 2 (+ x041 x021 x001)))
(assert (<= 1 (+ x041 x040 x039 x038 x037 x036 x035)))
(assert (<= 1 (+ x041 x039 x037 x035 x033 x031 x029)))
(assert (<= 1 (+ x041 x038 x035 x032 x029 x026 x023)))
(assert (<= 1 (+ x041 x037 x033 x029 x025 x021 x017)))
(assert (<= 1 (+ x041 x036 x031 x026 x021 x016 x011)))
(assert (<= 1 (+ x041 x035 x029 x023 x017 x011 x005)))
(assert (>= 1 x042))
(assert (<= 0 x042))
(assert (>= 2 (+ x042 x041 x040)))
(assert (>= 2 (+ x042 x040 x038)))
(assert (>= 2 (+ x042 x039 x036)))
(assert (>= 2 (+ x042 x038 x034)))
(assert (>= 2 (+ x042 x037 x032)))
(assert (>= 2 (+ x042 x036 x030)))
(assert (>= 2 (+ x042 x035 x028)))
(assert (>= 2 (+ x042 x034 x026)))
(assert (>= 2 (+ x042 x033 x024)))
(assert (>= 2 (+ x042 x032 x022)))
(assert (>= 2 (+ x042 x031 x020)))
(assert (>= 2 (+ x042 x030 x018)))
(assert (>= 2 (+ x042 x029 x016)))
(assert (>= 2 (+ x042 x028 x014)))
(assert (>= 2 (+ x042 x027 x012)))
(assert (>= 2 (+ x042 x026 x010)))
(assert (>= 2 (+ x042 x025 x008)))
(assert (>= 2 (+ x042 x024 x006)))
(assert (>= 2 (+ x042 x023 x004)))
(assert (>= 2 (+ x042 x022 x002)))
(assert (>= 2 (+ x042 x021 x000)))
(assert (<= 1 (+ x042 x041 x040 x039 x038 x037 x036)))
(assert (<= 1 (+ x042 x040 x038 x036 x034 x032 x030)))
(assert (<= 1 (+ x042 x039 x036 x033 x030 x027 x024)))
(assert (<= 1 (+ x042 x038 x034 x030 x026 x022 x018)))
(assert (<= 1 (+ x042 x037 x032 x027 x022 x017 x012)))
(assert (<= 1 (+ x042 x036 x030 x024 x018 x012 x006)))
(assert (<= 1 (+ x042 x035 x028 x021 x014 x007 x000)))
(assert (>= 1 x043))
(assert (<= 0 x043))
(assert (>= 2 (+ x043 x042 x041)))
(assert (>= 2 (+ x043 x041 x039)))
(assert (>= 2 (+ x043 x040 x037)))
(assert (>= 2 (+ x043 x039 x035)))
(assert (>= 2 (+ x043 x038 x033)))
(assert (>= 2 (+ x043 x037 x031)))
(assert (>= 2 (+ x043 x036 x029)))
(assert (>= 2 (+ x043 x035 x027)))
(assert (>= 2 (+ x043 x034 x025)))
(assert (>= 2 (+ x043 x033 x023)))
(assert (>= 2 (+ x043 x032 x021)))
(assert (>= 2 (+ x043 x031 x019)))
(assert (>= 2 (+ x043 x030 x017)))
(assert (>= 2 (+ x043 x029 x015)))
(assert (>= 2 (+ x043 x028 x013)))
(assert (>= 2 (+ x043 x027 x011)))
(assert (>= 2 (+ x043 x026 x009)))
(assert (>= 2 (+ x043 x025 x007)))
(assert (>= 2 (+ x043 x024 x005)))
(assert (>= 2 (+ x043 x023 x003)))
(assert (>= 2 (+ x043 x022 x001)))
(assert (<= 1 (+ x043 x042 x041 x040 x039 x038 x037)))
(assert (<= 1 (+ x043 x041 x039 x037 x035 x033 x031)))
(assert (<= 1 (+ x043 x040 x037 x034 x031 x028 x025)))
(assert (<= 1 (+ x043 x039 x035 x031 x027 x023 x019)))
(assert (<= 1 (+ x043 x038 x033 x028 x023 x018 x013)))
(assert (<= 1 (+ x043 x037 x031 x025 x019 x013 x007)))
(assert (<= 1 (+ x043 x036 x029 x022 x015 x008 x001)))
(assert (>= 1 x044))
(assert (<= 0 x044))
(assert (>= 2 (+ x044 x043 x042)))
(assert (>= 2 (+ x044 x042 x040)))
(assert (>= 2 (+ x044 x041 x038)))
(assert (>= 2 (+ x044 x040 x036)))
(assert (>= 2 (+ x044 x039 x034)))
(assert (>= 2 (+ x044 x038 x032)))
(assert (>= 2 (+ x044 x037 x030)))
(assert (>= 2 (+ x044 x036 x028)))
(assert (>= 2 (+ x044 x035 x026)))
(assert (>= 2 (+ x044 x034 x024)))
(assert (>= 2 (+ x044 x033 x022)))
(assert (>= 2 (+ x044 x032 x020)))
(assert (>= 2 (+ x044 x031 x018)))
(assert (>= 2 (+ x044 x030 x016)))
(assert (>= 2 (+ x044 x029 x014)))
(assert (>= 2 (+ x044 x028 x012)))
(assert (>= 2 (+ x044 x027 x010)))
(assert (>= 2 (+ x044 x026 x008)))
(assert (>= 2 (+ x044 x025 x006)))
(assert (>= 2 (+ x044 x024 x004)))
(assert (>= 2 (+ x044 x023 x002)))
(assert (>= 2 (+ x044 x022 x000)))
(assert (<= 1 (+ x044 x043 x042 x041 x040 x039 x038)))
(assert (<= 1 (+ x044 x042 x040 x038 x036 x034 x032)))
(assert (<= 1 (+ x044 x041 x038 x035 x032 x029 x026)))
(assert (<= 1 (+ x044 x040 x036 x032 x028 x024 x020)))
(assert (<= 1 (+ x044 x039 x034 x029 x024 x019 x014)))
(assert (<= 1 (+ x044 x038 x032 x026 x020 x014 x008)))
(assert (<= 1 (+ x044 x037 x030 x023 x016 x009 x002)))
(assert (>= 1 x045))
(assert (<= 0 x045))
(assert (>= 2 (+ x045 x044 x043)))
(assert (>= 2 (+ x045 x043 x041)))
(assert (>= 2 (+ x045 x042 x039)))
(assert (>= 2 (+ x045 x041 x037)))
(assert (>= 2 (+ x045 x040 x035)))
(assert (>= 2 (+ x045 x039 x033)))
(assert (>= 2 (+ x045 x038 x031)))
(assert (>= 2 (+ x045 x037 x029)))
(assert (>= 2 (+ x045 x036 x027)))
(assert (>= 2 (+ x045 x035 x025)))
(assert (>= 2 (+ x045 x034 x023)))
(assert (>= 2 (+ x045 x033 x021)))
(assert (>= 2 (+ x045 x032 x019)))
(assert (>= 2 (+ x045 x031 x017)))
(assert (>= 2 (+ x045 x030 x015)))
(assert (>= 2 (+ x045 x029 x013)))
(assert (>= 2 (+ x045 x028 x011)))
(assert (>= 2 (+ x045 x027 x009)))
(assert (>= 2 (+ x045 x026 x007)))
(assert (>= 2 (+ x045 x025 x005)))
(assert (>= 2 (+ x045 x024 x003)))
(assert (>= 2 (+ x045 x023 x001)))
(assert (<= 1 (+ x045 x044 x043 x042 x041 x040 x039)))
(assert (<= 1 (+ x045 x043 x041 x039 x037 x035 x033)))
(assert (<= 1 (+ x045 x042 x039 x036 x033 x030 x027)))
(assert (<= 1 (+ x045 x041 x037 x033 x029 x025 x021)))
(assert (<= 1 (+ x045 x040 x035 x030 x025 x020 x015)))
(assert (<= 1 (+ x045 x039 x033 x027 x021 x015 x009)))
(assert (<= 1 (+ x045 x038 x031 x024 x017 x010 x003)))
(check-sat)
(get-proof)
